RT is False
Default write of storage_offers_DA.csv just to have a file (but constraint should be inactive)
Reading model...
...model read.
creating competitive generators file...
...competitive generators recorded.
Loading data...
.. day-ahead data with real-time VRE data read.
Compiling instance...
...instance created.
Creating Offer Mitigation (model will solve as dispatch if TRUE)...
NOTE: storage offers will not be mitigated
...storage offer mitigation file created
Converting model to MPEC...
...converted
NOTE: initial MIP solve with only storage competitive to get feasible solution
Solving...

Welcome to IBM(R) ILOG(R) CPLEX(R) Interactive Optimizer 12.9.0.0
  with Simplex, Mixed Integer & Barrier Optimizers
5725-A06 5725-A29 5724-Y48 5724-Y49 5724-Y54 5724-Y55 5655-Y21
Copyright IBM Corp. 1988, 2019.  All Rights Reserved.

Type 'help' for a list of available commands.
Type 'help' followed by a command name for more
information on commands.

CPLEX> Logfile 'cplex.log' closed.
Logfile 'C:\Users\llavin\Desktop\test826\logs\tmpv1wdg9wj.cplex.log' open.
CPLEX> New value for parallel optimization mode: -1
CPLEX> New value for mixed integer optimality gap tolerance: 0.01
CPLEX> New value for feasibility tolerance: 1e-09
CPLEX> New value for deterministic time limit in ticks: 100000
CPLEX> Problem 'C:\Users\llavin\Desktop\test826\logs\tmp6hqyk_xa.pyomo.lp' read.
Read time = 0.23 sec. (14.72 ticks)
CPLEX> Problem name         : C:\Users\llavin\Desktop\test826\logs\tmp6hqyk_xa.pyomo.lp
Objective sense      : Maximize
Variables            :   53805  [Nneg: 1,  Box: 22000,  Free: 4464,
                                 Binary: 27340]
Objective nonzeros   :    9029
Linear constraints   :  123205  [Less: 41346,  Greater: 59096,  Equal: 22763]
  Nonzeros           :  291753
  RHS nonzeros       :   67495

Variables            : Min LB: -5000.000        Max UB: 1000000.       
Objective nonzeros   : Min   : 0.2250000        Max   : 2500.000       
Linear constraints   :
  Nonzeros           : Min   : 0.2250000        Max   : 1000000.       
  RHS nonzeros       : Min   : 0.2250000        Max   : 1000000.       
CPLEX> CPXPARAM_Parallel                                -1
CPXPARAM_Simplex_Tolerances_Feasibility          1.0000000000000001e-09
CPXPARAM_DetTimeLimit                            100000
CPXPARAM_MIP_Tolerances_MIPGap                   0.01
Tried aggregator 3 times.
MIP Presolve eliminated 88645 rows and 18969 columns.
MIP Presolve added 3381 rows and 0 columns.
MIP Presolve modified 24852 coefficients.
Aggregator did 13017 substitutions.
Reduced MIP has 24924 rows, 21263 columns, and 71082 nonzeros.
Reduced MIP has 8414 binaries, 0 generals, 0 SOSs, and 0 indicators.
Presolve time = 0.28 sec. (168.35 ticks)
Probing fixed 401 vars, tightened 3938 bounds.
Probing time = 0.06 sec. (18.73 ticks)
Tried aggregator 2 times.
MIP Presolve eliminated 908 rows and 805 columns.
MIP Presolve modified 3031 coefficients.
Aggregator did 24 substitutions.
Reduced MIP has 23992 rows, 20434 columns, and 68384 nonzeros.
Reduced MIP has 8012 binaries, 0 generals, 0 SOSs, and 0 indicators.
Presolve time = 0.11 sec. (88.81 ticks)
Probing fixed 0 vars, tightened 249 bounds.
Probing time = 0.14 sec. (22.43 ticks)
Clique table members: 44781.
MIP emphasis: balance optimality and feasibility.
MIP search method: dynamic search.
Parallel mode: opportunistic, using up to 32 threads.
Root relaxation solution time = 0.41 sec. (601.80 ticks)

        Nodes                                         Cuts/
   Node  Left     Objective  IInf  Best Integer    Best Bound    ItCnt     Gap

      0     0     3964.3813    86                   3964.3813     5247         
*     0+    0                         3964.3813     3964.3813             0.00%
      0     0        cutoff           3964.3813     3964.3813     5247    0.00%
Elapsed time = 1.53 sec. (1172.44 ticks, tree = 0.01 MB, solutions = 1)

Root node processing (before b&c):
  Real time             =    1.55 sec. (1174.38 ticks)
Parallel b&c, 32 threads:
  Real time             =    0.00 sec. (0.00 ticks)
  Sync time (average)   =    0.00 sec.
  Wait time (average)   =    0.00 sec.
                          ------------
Total (root+branch&cut) =    1.55 sec. (1174.38 ticks)

Solution pool: 1 solution saved.

MIP - Integer optimal solution:  Objective =  3.9643813170e+03
Solution time =    1.58 sec.  Iterations = 5247  Nodes = 0
Deterministic time = 1174.53 ticks  (743.85 ticks/sec)

CPLEX> Incumbent solution written to file 'C:\Users\llavin\Desktop\test826\logs\tmpuuul911e.cplex.sol'.
CPLEX> NOTE: no warmstart specified for MIP iteration, default behavior is true
NOTE: resolving with all competitive generators using storage-only solution to warmstart
Solving...

Welcome to IBM(R) ILOG(R) CPLEX(R) Interactive Optimizer 12.9.0.0
  with Simplex, Mixed Integer & Barrier Optimizers
5725-A06 5725-A29 5724-Y48 5724-Y49 5724-Y54 5724-Y55 5655-Y21
Copyright IBM Corp. 1988, 2019.  All Rights Reserved.

Type 'help' for a list of available commands.
Type 'help' followed by a command name for more
information on commands.

CPLEX> Logfile 'cplex.log' closed.
Logfile 'C:\Users\llavin\Desktop\test826\logs\tmp8_3z5jbe.cplex.log' open.
CPLEX> New value for parallel optimization mode: -1
CPLEX> New value for mixed integer optimality gap tolerance: 0.01
CPLEX> New value for feasibility tolerance: 1e-09
CPLEX> New value for deterministic time limit in ticks: 100000
CPLEX> Problem 'C:\Users\llavin\Desktop\test826\logs\tmpkoqscssx.pyomo.lp' read.
Read time = 0.25 sec. (14.74 ticks)
CPLEX> MIP start file 'C:\Users\llavin\Desktop\test826\logs\tmpj4lz6w_p.cplex.mst' read.
CPLEX> Problem name         : C:\Users\llavin\Desktop\test826\logs\tmpkoqscssx.pyomo.lp
Objective sense      : Maximize
Variables            :   54525  [Nneg: 1,  Box: 22720,  Free: 4464,
                                 Binary: 27340]
Objective nonzeros   :    9725
Linear constraints   :  123205  [Less: 41346,  Greater: 59096,  Equal: 22763]
  Nonzeros           :  291753
  RHS nonzeros       :   67495

Variables            : Min LB: -5000.000        Max UB: 1000000.       
Objective nonzeros   : Min   : 0.2250000        Max   : 2500.000       
Linear constraints   :
  Nonzeros           : Min   : 0.2250000        Max   : 1000000.       
  RHS nonzeros       : Min   : 0.2250000        Max   : 1000000.       
CPLEX> CPXPARAM_Parallel                                -1
CPXPARAM_Simplex_Tolerances_Feasibility          1.0000000000000001e-09
CPXPARAM_DetTimeLimit                            100000
CPXPARAM_MIP_Tolerances_MIPGap                   0.01
1 of 1 MIP starts provided solutions.
MIP start 'm1' defined initial solution with objective 50783.5887.
Tried aggregator 3 times.
MIP Presolve eliminated 88645 rows and 19689 columns.
MIP Presolve added 3381 rows and 0 columns.
MIP Presolve modified 24852 coefficients.
Aggregator did 13017 substitutions.
Reduced MIP has 24924 rows, 21263 columns, and 71082 nonzeros.
Reduced MIP has 8414 binaries, 0 generals, 0 SOSs, and 0 indicators.
Presolve time = 0.28 sec. (168.70 ticks)
Probing fixed 401 vars, tightened 3938 bounds.
Probing time = 0.06 sec. (18.73 ticks)
Tried aggregator 2 times.
MIP Presolve eliminated 908 rows and 805 columns.
MIP Presolve modified 3031 coefficients.
Aggregator did 24 substitutions.
Reduced MIP has 23992 rows, 20434 columns, and 68384 nonzeros.
Reduced MIP has 8012 binaries, 0 generals, 0 SOSs, and 0 indicators.
Presolve time = 0.11 sec. (88.81 ticks)
Probing fixed 0 vars, tightened 249 bounds.
Probing time = 0.13 sec. (22.43 ticks)
Clique table members: 44781.
MIP emphasis: balance optimality and feasibility.
MIP search method: dynamic search.
Parallel mode: opportunistic, using up to 32 threads.
Root relaxation solution time = 0.44 sec. (648.95 ticks)

        Nodes                                         Cuts/
   Node  Left     Objective  IInf  Best Integer    Best Bound    ItCnt     Gap

*     0+    0                        50783.5887   6.43752e+07              --- 
      0     0    94083.7795   159    50783.5887    94083.7795     5641   85.26%
      0     0    90456.1090   108    50783.5887     Cuts: 358     5867   78.12%
      0     0    90179.2630   105    50783.5887     Cuts: 195     5966   77.58%
      0     0    90165.5719   105    50783.5887     Cuts: 112     5996   77.55%
      0     0    90140.0291   110    50783.5887      Cuts: 49     6013   77.50%
      0     0    90140.0291   110    50783.5887    MIRcuts: 2     6014   77.50%
      0     0    90140.0291    93    50783.5887    MIRcuts: 2     6015   77.50%
      0     0    90140.0291    96    50783.5887      Cuts: 31     6030   77.50%
      0    16    infeasible          50783.5887  Impl Bds: 11     6264   61.18%
Elapsed time = 5.30 sec. (2930.48 ticks, tree = 0.02 MB, solutions = 1)
    384    40    57525.2505    43    50783.5887    80133.0057     7159   57.79%
    901   339    56284.4604    39    50783.5887    71900.3263    12187   41.58%
   1499   499    55999.0683    35    50783.5887    71900.3263    15687   41.58%
   2200   849    53880.1843    71    50783.5887    71900.3263    19986   41.58%
   2971  1176    51378.7930     4    50783.5887    71900.3263    23137   41.58%
   3710  1657    53464.3769     6    50783.5887    71900.3263    28251   41.58%
   4486  2076    51182.9922    40    50783.5887    71900.3263    31951   41.58%
   5286  2390    52316.3620    34    50783.5887    71900.3263    35380   41.58%
   6127  2883    56353.1227    48    50783.5887    59411.6681    40576   16.99%
*  7704  3941      integral     0    50842.4210    58716.8794    51905   15.49%
Elapsed time = 21.25 sec. (5563.76 ticks, tree = 41.01 MB, solutions = 2)
   8682  4970    infeasible          50842.4210    58463.6029    71913   14.99%
   9650    77    52081.0206    21    50842.4210    57719.3178    74472   13.53%
  11437    66    52395.7518    61    50842.4210    56440.5768    75181   11.01%
  12356   609    51945.8462    36    50842.4210    55635.1950    86309    9.43%
  13872  1862        cutoff          50842.4210    54679.5610   117080    7.55%
  16956  2167        cutoff          50842.4210    52980.3887   131533    4.21%
  20002  2153    infeasible          50842.4210    51439.5536   172888    1.17%
  21807  1681        cutoff          50842.4210    51439.5536   194937    1.17%

Cover cuts applied:  18
Implied bound cuts applied:  3
Flow cuts applied:  89
Mixed integer rounding cuts applied:  6
Lift and project cuts applied:  2
Gomory fractional cuts applied:  6

Root node processing (before b&c):
  Real time             =    4.19 sec. (2921.18 ticks)
Parallel b&c, 32 threads:
  Real time             =   57.53 sec. (14976.81 ticks)
  Sync time (average)   =    4.80 sec.
  Wait time (average)   =    0.17 sec.
                          ------------
Total (root+branch&cut) =   61.72 sec. (17897.99 ticks)

Solution pool: 2 solutions saved.

MIP - Integer optimal, tolerance (0.01/1e-06):  Objective =  5.0842420993e+04
Current MIP best bound =  5.1350039829e+04 (gap = 507.619, 1.00%)
Solution time =   61.73 sec.  Iterations = 233589  Nodes = 22189 (1251)
Deterministic time = 17898.15 ticks  (289.92 ticks/sec)

CPLEX> Incumbent solution written to file 'C:\Users\llavin\Desktop\test826\logs\tmp0w6l5i_t.cplex.sol'.
CPLEX> Exporting results... 
